************************************************************************
file with basedata            : mm11_.bas
initial value random generator: 2114911361
************************************************************************
projects                      :  1
jobs (incl. supersource/sink ):  12
horizon                       :  72
RESOURCES
  - renewable                 :  2   R
  - nonrenewable              :  2   N
  - doubly constrained        :  0   D
************************************************************************
PROJECT INFORMATION:
pronr.  #jobs rel.date duedate tardcost  MPM-Time
    1     10      0       16        3       16
************************************************************************
PRECEDENCE RELATIONS:
jobnr.    #modes  #successors   successors
   0        1          3           1   2   3
   1        3          1           8
   2        3          2           6   7
   3        3          2           4  10
   4        3          1           5
   5        3          2           6   8
   6        3          1           9
   7        3          3           8   9  10
   8        3          1          11
   9        3          1          11
  10        3          1          11
  11        1          0        
************************************************************************
REQUESTS/DURATIONS:
jobnr. mode duration  R 1  R 2  R 3  R 4  E(W 1)  E(W 2)  E(W 3)
------------------------------------------------------------------------
  0      1     0       0    0    0    0     0       0       0
  1      1     2       5    0    9    0    10      18       0
  2      1     1       0    7    0    7     7       0       7
  3      1     4      10    0    0    6    40       0      24
  4      1     5       4    0    0    7    20       0      35
  5      1     1       5    0    2    0     5       2       0
  6      1     5       0    7    0    3    35       0      15
  7      1     1       0    8    0    8     8       0       8
  8      1     4       0    2    9    0     8      36       0
  9      1     1       0    4    5    0     4       5       0
 10      1     3       0    6    0    7    18       0      21
 11      1     0       0    0    0    0     0       0       0
************************************************************************
RESOURCEAVAILABILITIES:
  R 1  R 2  R 3
   26   46   29
************************************************************************
RESOURCE LIMITS:
jobnr.  l(R 1)  u(R 1)  l(R 2)  u(R 2)  l(R 3)  u(R 3)
------------------------------------------------------------------------
  0        0       0       0       0       0       0
  1        3       5       5       9       0       0
  2        4       7       0       0       4       7
  3        5      10       0       0       3       6
  4        2       4       0       0       4       7
  5        3       5       1       2       0       0
  6        4       7       0       0       2       3
  7        4       8       0       0       4       8
  8        1       2       5       9       0       0
  9        2       4       3       5       0       0
 10        3       6       0       0       4       7
 11        0       0       0       0       0       0
************************************************************************
SCENARIOS:
------------------------------------------------------------------------
RESOURCE k = 1
s = 1: (0, 7, 10, 30, 13, 5, 24, 7, 7, 5, 24, 0)
s = 2: (0, 12, 4, 32, 22, 4, 24, 10, 8, 5, 20, 0)
s = 3: (0, 7, 6, 42, 12, 8, 37, 12, 14, 5, 21, 0)
s = 4: (0, 8, 8, 36, 21, 3, 43, 7, 9, 3, 15, 0)
s = 5: (0, 10, 7, 61, 23, 7, 33, 10, 8, 3, 14, 0)
s = 6: (0, 7, 5, 32, 22, 5, 59, 13, 6, 4, 15, 0)
s = 7: (0, 9, 6, 56, 16, 8, 25, 8, 6, 4, 18, 0)
s = 8: (0, 9, 6, 51, 12, 6, 41, 11, 7, 3, 21, 0)
s = 9: (0, 8, 8, 34, 13, 5, 26, 9, 8, 4, 16, 0)
s = 10: (0, 8, 10, 36, 24, 5, 47, 10, 9, 4, 14, 0)
s = 11: (0, 15, 6, 33, 31, 6, 22, 10, 10, 5, 14, 0)
s = 12: (0, 11, 6, 63, 37, 6, 36, 12, 11, 5, 22, 0)
s = 13: (0, 8, 9, 36, 14, 6, 34, 8, 6, 5, 21, 0)
s = 14: (0, 10, 8, 32, 18, 5, 40, 9, 8, 7, 14, 0)
s = 15: (0, 15, 8, 44, 21, 5, 44, 9, 9, 5, 10, 0)
s = 16: (0, 7, 5, 23, 14, 6, 29, 10, 8, 3, 31, 0)
s = 17: (0, 10, 7, 48, 19, 5, 35, 7, 9, 5, 15, 0)
s = 18: (0, 10, 9, 35, 18, 5, 21, 6, 10, 6, 20, 0)
s = 19: (0, 12, 7, 46, 17, 5, 51, 11, 9, 4, 15, 0)
s = 20: (0, 10, 10, 52, 18, 9, 36, 9, 6, 6, 22, 0)
s = 21: (0, 8, 11, 23, 32, 8, 42, 6, 7, 6, 15, 0)
s = 22: (0, 12, 8, 30, 23, 6, 40, 6, 7, 4, 15, 0)
s = 23: (0, 9, 6, 28, 24, 4, 33, 9, 12, 3, 14, 0)
s = 24: (0, 7, 6, 33, 22, 6, 35, 8, 13, 5, 19, 0)
s = 25: (0, 11, 8, 30, 29, 4, 42, 15, 9, 6, 13, 0)
s = 26: (0, 10, 7, 58, 13, 4, 21, 5, 7, 5, 19, 0)
s = 27: (0, 15, 6, 37, 18, 4, 46, 8, 6, 7, 23, 0)
s = 28: (0, 11, 6, 49, 19, 4, 39, 12, 10, 4, 24, 0)
s = 29: (0, 11, 5, 26, 28, 7, 40, 11, 9, 4, 19, 0)
s = 30: (0, 20, 5, 48, 21, 6, 27, 5, 9, 4, 13, 0)
s = 31: (0, 19, 6, 36, 25, 4, 33, 8, 7, 5, 20, 0)
s = 32: (0, 9, 6, 29, 20, 4, 38, 7, 8, 3, 16, 0)
s = 33: (0, 9, 10, 41, 15, 4, 27, 5, 8, 6, 14, 0)
s = 34: (0, 14, 6, 48, 25, 4, 58, 8, 8, 6, 22, 0)
s = 35: (0, 7, 8, 32, 14, 5, 20, 10, 6, 5, 18, 0)
s = 36: (0, 9, 6, 38, 23, 5, 23, 6, 11, 4, 17, 0)
s = 37: (0, 15, 6, 37, 13, 4, 51, 9, 6, 3, 18, 0)
s = 38: (0, 9, 7, 40, 20, 4, 35, 8, 8, 6, 19, 0)
s = 39: (0, 10, 5, 37, 13, 3, 32, 9, 12, 3, 17, 0)
s = 40: (0, 14, 9, 47, 23, 6, 48, 6, 8, 4, 22, 0)
s = 41: (0, 9, 10, 51, 27, 4, 37, 13, 11, 5, 31, 0)
s = 42: (0, 10, 9, 28, 28, 5, 46, 12, 7, 5, 11, 0)
s = 43: (0, 16, 4, 44, 17, 7, 51, 10, 7, 4, 18, 0)
s = 44: (0, 12, 12, 42, 24, 5, 34, 10, 7, 5, 19, 0)
s = 45: (0, 10, 5, 56, 29, 4, 27, 6, 11, 4, 19, 0)
s = 46: (0, 12, 5, 29, 28, 7, 20, 12, 6, 5, 12, 0)
s = 47: (0, 7, 4, 54, 24, 4, 28, 8, 11, 6, 16, 0)
s = 48: (0, 6, 6, 49, 18, 5, 56, 8, 6, 7, 18, 0)
s = 49: (0, 9, 7, 43, 17, 3, 26, 9, 10, 4, 14, 0)
s = 50: (0, 11, 8, 35, 19, 5, 34, 10, 6, 5, 28, 0)
s = 51: (0, 11, 8, 41, 16, 6, 33, 11, 6, 4, 19, 0)
s = 52: (0, 8, 9, 27, 14, 3, 25, 6, 6, 3, 12, 0)
s = 53: (0, 8, 8, 27, 31, 8, 24, 8, 9, 4, 13, 0)
s = 54: (0, 7, 6, 64, 20, 4, 43, 7, 10, 4, 15, 0)
s = 55: (0, 10, 7, 35, 15, 5, 39, 11, 7, 6, 17, 0)
s = 56: (0, 9, 5, 65, 35, 8, 28, 10, 6, 5, 16, 0)
s = 57: (0, 6, 9, 59, 19, 5, 35, 9, 9, 7, 19, 0)
s = 58: (0, 10, 9, 55, 14, 5, 40, 7, 5, 3, 20, 0)
s = 59: (0, 7, 9, 27, 25, 7, 32, 8, 7, 3, 21, 0)
s = 60: (0, 11, 9, 49, 17, 5, 31, 7, 10, 4, 23, 0)
s = 61: (0, 9, 13, 37, 20, 7, 34, 9, 10, 4, 21, 0)
s = 62: (0, 9, 5, 53, 12, 5, 32, 6, 8, 3, 12, 0)
s = 63: (0, 9, 12, 51, 27, 6, 27, 8, 8, 5, 16, 0)
s = 64: (0, 9, 4, 28, 22, 4, 33, 11, 10, 4, 19, 0)
s = 65: (0, 8, 14, 26, 21, 4, 27, 9, 11, 4, 27, 0)
s = 66: (0, 9, 6, 47, 15, 6, 42, 15, 6, 4, 24, 0)
s = 67: (0, 16, 11, 52, 23, 5, 47, 10, 9, 5, 16, 0)
s = 68: (0, 6, 6, 40, 17, 7, 40, 5, 7, 7, 24, 0)
s = 69: (0, 9, 5, 57, 28, 4, 25, 11, 10, 4, 26, 0)
s = 70: (0, 9, 10, 38, 23, 8, 33, 6, 5, 3, 26, 0)
s = 71: (0, 7, 13, 61, 17, 9, 53, 6, 7, 4, 21, 0)
s = 72: (0, 8, 9, 39, 24, 9, 29, 11, 13, 6, 13, 0)
s = 73: (0, 8, 11, 42, 15, 4, 27, 13, 6, 4, 23, 0)
s = 74: (0, 12, 8, 28, 22, 7, 22, 7, 9, 5, 12, 0)
s = 75: (0, 14, 6, 51, 17, 4, 33, 11, 10, 4, 19, 0)
s = 76: (0, 9, 9, 33, 21, 4, 37, 11, 8, 4, 13, 0)
s = 77: (0, 8, 6, 44, 14, 4, 30, 6, 9, 4, 12, 0)
s = 78: (0, 14, 5, 39, 19, 4, 50, 11, 6, 3, 15, 0)
s = 79: (0, 8, 8, 27, 16, 5, 40, 9, 8, 6, 16, 0)
s = 80: (0, 15, 5, 40, 30, 8, 36, 10, 6, 5, 18, 0)
s = 81: (0, 9, 7, 51, 28, 5, 20, 9, 6, 5, 11, 0)
s = 82: (0, 6, 8, 51, 19, 4, 29, 8, 15, 5, 21, 0)
s = 83: (0, 10, 5, 28, 15, 4, 31, 9, 6, 8, 13, 0)
s = 84: (0, 15, 6, 45, 12, 6, 27, 6, 9, 3, 22, 0)
s = 85: (0, 14, 13, 37, 21, 5, 30, 8, 6, 4, 11, 0)
s = 86: (0, 19, 6, 55, 30, 6, 31, 5, 6, 5, 19, 0)
s = 87: (0, 10, 6, 26, 20, 4, 54, 6, 10, 3, 13, 0)
s = 88: (0, 8, 12, 33, 18, 8, 31, 7, 8, 6, 14, 0)
s = 89: (0, 14, 9, 67, 28, 4, 23, 7, 8, 5, 18, 0)
s = 90: (0, 18, 9, 53, 23, 4, 34, 7, 6, 3, 21, 0)
s = 91: (0, 15, 7, 30, 12, 6, 40, 7, 13, 3, 14, 0)
s = 92: (0, 7, 7, 38, 23, 5, 30, 9, 9, 4, 21, 0)
s = 93: (0, 11, 10, 42, 18, 5, 19, 5, 7, 4, 19, 0)
s = 94: (0, 13, 10, 29, 19, 7, 39, 9, 6, 5, 25, 0)
s = 95: (0, 12, 11, 36, 16, 8, 28, 11, 11, 7, 17, 0)
s = 96: (0, 15, 7, 36, 16, 5, 39, 10, 6, 4, 15, 0)
s = 97: (0, 9, 6, 32, 27, 5, 24, 7, 6, 4, 23, 0)
s = 98: (0, 10, 9, 46, 21, 6, 29, 9, 9, 7, 19, 0)
s = 99: (0, 7, 9, 43, 28, 6, 41, 9, 9, 5, 19, 0)
s = 100: (0, 11, 5, 37, 26, 5, 23, 9, 7, 5, 12, 0)
s = 101: (0, 8, 7, 28, 23, 7, 48, 8, 8, 4, 21, 0)
s = 102: (0, 14, 11, 48, 31, 7, 37, 9, 7, 4, 16, 0)
s = 103: (0, 8, 7, 38, 13, 6, 20, 5, 11, 7, 18, 0)
s = 104: (0, 10, 7, 47, 17, 6, 26, 9, 9, 4, 20, 0)
s = 105: (0, 11, 9, 53, 16, 6, 43, 5, 6, 4, 10, 0)
s = 106: (0, 11, 9, 46, 14, 5, 34, 7, 7, 6, 25, 0)
s = 107: (0, 11, 5, 68, 14, 5, 31, 6, 8, 4, 22, 0)
s = 108: (0, 11, 11, 53, 16, 6, 35, 9, 8, 6, 20, 0)
s = 109: (0, 12, 9, 26, 22, 4, 38, 7, 16, 6, 23, 0)
s = 110: (0, 12, 9, 38, 23, 4, 38, 5, 6, 4, 18, 0)
s = 111: (0, 10, 6, 36, 28, 7, 24, 8, 12, 5, 15, 0)
s = 112: (0, 8, 7, 57, 13, 6, 36, 14, 6, 7, 10, 0)
s = 113: (0, 9, 9, 36, 13, 8, 31, 6, 7, 4, 15, 0)
s = 114: (0, 11, 5, 51, 25, 7, 28, 8, 7, 6, 12, 0)
s = 115: (0, 9, 8, 34, 18, 4, 57, 13, 6, 3, 17, 0)
s = 116: (0, 11, 4, 34, 19, 4, 51, 11, 10, 4, 13, 0)
s = 117: (0, 12, 6, 52, 22, 5, 29, 6, 6, 4, 29, 0)
s = 118: (0, 16, 6, 33, 15, 5, 40, 12, 8, 4, 17, 0)
s = 119: (0, 12, 6, 40, 22, 6, 23, 9, 11, 5, 14, 0)
s = 120: (0, 16, 6, 33, 28, 5, 41, 10, 9, 4, 17, 0)
s = 121: (0, 10, 8, 33, 18, 7, 29, 10, 5, 6, 23, 0)
s = 122: (0, 9, 5, 49, 13, 6, 33, 10, 6, 4, 18, 0)
s = 123: (0, 16, 7, 32, 17, 7, 39, 8, 9, 6, 23, 0)
s = 124: (0, 9, 9, 36, 22, 8, 29, 10, 9, 4, 12, 0)
s = 125: (0, 7, 8, 23, 26, 5, 53, 7, 7, 6, 22, 0)
s = 126: (0, 12, 7, 41, 18, 4, 24, 10, 6, 4, 12, 0)
s = 127: (0, 7, 10, 29, 12, 8, 32, 7, 6, 5, 19, 0)
s = 128: (0, 14, 7, 57, 19, 4, 38, 10, 7, 5, 24, 0)
s = 129: (0, 18, 9, 39, 17, 5, 64, 6, 8, 4, 17, 0)
s = 130: (0, 14, 5, 32, 21, 5, 43, 8, 7, 5, 13, 0)
s = 131: (0, 8, 10, 54, 17, 6, 53, 11, 8, 4, 13, 0)
s = 132: (0, 11, 6, 52, 17, 7, 24, 8, 8, 7, 19, 0)
s = 133: (0, 15, 7, 32, 30, 6, 48, 5, 8, 4, 26, 0)
s = 134: (0, 14, 10, 56, 17, 5, 20, 11, 11, 4, 21, 0)
s = 135: (0, 8, 7, 40, 16, 5, 38, 12, 9, 6, 22, 0)
s = 136: (0, 8, 10, 45, 28, 6, 24, 12, 8, 3, 17, 0)
s = 137: (0, 13, 7, 40, 17, 4, 40, 5, 5, 3, 22, 0)
s = 138: (0, 7, 8, 34, 23, 6, 36, 6, 6, 4, 11, 0)
s = 139: (0, 7, 13, 60, 24, 6, 44, 7, 7, 5, 18, 0)
s = 140: (0, 14, 8, 37, 34, 5, 45, 7, 6, 4, 14, 0)
s = 141: (0, 15, 9, 50, 19, 9, 23, 6, 10, 8, 27, 0)
s = 142: (0, 15, 9, 42, 17, 5, 41, 6, 8, 6, 15, 0)
s = 143: (0, 12, 12, 62, 20, 8, 45, 14, 13, 5, 12, 0)
s = 144: (0, 9, 6, 39, 28, 4, 41, 6, 16, 4, 16, 0)
s = 145: (0, 9, 9, 29, 30, 7, 23, 11, 7, 4, 28, 0)
s = 146: (0, 11, 7, 37, 25, 4, 21, 6, 7, 4, 14, 0)
s = 147: (0, 12, 7, 37, 22, 5, 33, 8, 7, 6, 19, 0)
s = 148: (0, 11, 13, 44, 40, 4, 35, 14, 7, 3, 25, 0)
s = 149: (0, 13, 11, 24, 24, 9, 26, 6, 6, 3, 25, 0)
s = 150: (0, 7, 8, 37, 18, 5, 47, 8, 9, 4, 21, 0)
s = 151: (0, 6, 6, 44, 22, 7, 60, 12, 12, 4, 14, 0)
s = 152: (0, 17, 7, 22, 24, 4, 28, 7, 7, 4, 22, 0)
s = 153: (0, 6, 7, 36, 24, 5, 40, 12, 12, 5, 17, 0)
s = 154: (0, 12, 6, 75, 14, 4, 42, 8, 11, 7, 15, 0)
s = 155: (0, 8, 5, 34, 24, 5, 40, 11, 8, 3, 15, 0)
s = 156: (0, 9, 12, 57, 13, 7, 25, 11, 8, 4, 19, 0)
s = 157: (0, 14, 6, 27, 22, 9, 52, 9, 10, 6, 15, 0)
s = 158: (0, 15, 6, 42, 32, 5, 27, 10, 9, 6, 30, 0)
s = 159: (0, 10, 8, 56, 12, 4, 29, 7, 10, 4, 18, 0)
s = 160: (0, 14, 9, 40, 26, 5, 51, 7, 8, 4, 20, 0)
s = 161: (0, 14, 10, 30, 30, 6, 23, 6, 13, 5, 16, 0)
s = 162: (0, 9, 9, 36, 16, 6, 38, 10, 10, 5, 23, 0)
s = 163: (0, 9, 7, 50, 21, 5, 21, 9, 12, 3, 20, 0)
s = 164: (0, 12, 6, 34, 25, 5, 25, 10, 6, 5, 14, 0)
s = 165: (0, 7, 6, 49, 20, 5, 47, 9, 6, 3, 29, 0)
s = 166: (0, 7, 10, 26, 13, 6, 33, 10, 7, 8, 23, 0)
s = 167: (0, 9, 7, 61, 16, 4, 20, 7, 9, 5, 14, 0)
s = 168: (0, 9, 6, 61, 19, 4, 35, 12, 10, 5, 20, 0)
s = 169: (0, 11, 5, 35, 23, 4, 32, 14, 9, 6, 26, 0)
s = 170: (0, 13, 7, 25, 17, 3, 36, 11, 11, 4, 14, 0)
s = 171: (0, 9, 8, 38, 12, 3, 50, 7, 11, 5, 12, 0)
s = 172: (0, 11, 8, 28, 27, 4, 42, 8, 7, 4, 25, 0)
s = 173: (0, 12, 7, 43, 16, 3, 25, 7, 6, 5, 17, 0)
s = 174: (0, 9, 10, 29, 16, 6, 44, 7, 6, 3, 15, 0)
s = 175: (0, 14, 8, 36, 30, 4, 36, 9, 7, 5, 18, 0)
s = 176: (0, 8, 6, 72, 17, 6, 20, 10, 11, 3, 11, 0)
s = 177: (0, 7, 7, 29, 32, 6, 26, 7, 6, 7, 15, 0)
s = 178: (0, 12, 6, 30, 22, 3, 35, 12, 10, 3, 21, 0)
s = 179: (0, 10, 6, 29, 37, 7, 28, 9, 11, 4, 13, 0)
s = 180: (0, 9, 7, 30, 27, 5, 23, 12, 12, 3, 25, 0)
s = 181: (0, 13, 9, 32, 18, 5, 68, 8, 7, 5, 23, 0)
s = 182: (0, 9, 7, 36, 13, 4, 21, 15, 7, 4, 26, 0)
s = 183: (0, 9, 9, 36, 17, 6, 25, 9, 7, 3, 11, 0)
s = 184: (0, 11, 6, 51, 33, 5, 58, 14, 7, 3, 20, 0)
s = 185: (0, 6, 6, 33, 23, 6, 35, 6, 7, 3, 22, 0)
s = 186: (0, 7, 8, 26, 14, 5, 26, 12, 7, 4, 15, 0)
s = 187: (0, 16, 5, 66, 32, 3, 40, 7, 7, 3, 15, 0)
s = 188: (0, 7, 9, 24, 14, 6, 26, 7, 5, 5, 14, 0)
s = 189: (0, 13, 5, 34, 22, 7, 32, 6, 6, 6, 32, 0)
s = 190: (0, 7, 6, 41, 17, 7, 32, 6, 9, 5, 24, 0)
s = 191: (0, 8, 7, 67, 17, 5, 43, 8, 9, 4, 21, 0)
s = 192: (0, 11, 7, 33, 20, 4, 34, 5, 6, 3, 15, 0)
s = 193: (0, 8, 8, 38, 23, 6, 38, 5, 7, 3, 18, 0)
s = 194: (0, 13, 7, 51, 13, 7, 33, 12, 6, 5, 26, 0)
s = 195: (0, 11, 8, 42, 26, 7, 63, 7, 10, 5, 15, 0)
s = 196: (0, 13, 6, 43, 17, 5, 25, 7, 8, 3, 22, 0)
s = 197: (0, 10, 6, 29, 20, 6, 49, 11, 7, 3, 35, 0)
s = 198: (0, 11, 5, 30, 21, 6, 49, 7, 7, 5, 30, 0)
s = 199: (0, 11, 7, 56, 13, 6, 37, 7, 6, 4, 19, 0)
s = 200: (0, 11, 5, 63, 20, 5, 36, 8, 12, 3, 13, 0)
------------------------------------------------------------------------
RESOURCE k = 2
s = 1: (0, 13, 0, 0, 0, 2, 0, 0, 32, 6, 0, 0)
s = 2: (0, 21, 0, 0, 0, 2, 0, 0, 33, 6, 0, 0)
s = 3: (0, 11, 0, 0, 0, 3, 0, 0, 60, 6, 0, 0)
s = 4: (0, 14, 0, 0, 0, 2, 0, 0, 41, 4, 0, 0)
s = 5: (0, 17, 0, 0, 0, 3, 0, 0, 35, 4, 0, 0)
s = 6: (0, 12, 0, 0, 0, 2, 0, 0, 27, 5, 0, 0)
s = 7: (0, 15, 0, 0, 0, 4, 0, 0, 23, 5, 0, 0)
s = 8: (0, 15, 0, 0, 0, 3, 0, 0, 28, 4, 0, 0)
s = 9: (0, 14, 0, 0, 0, 2, 0, 0, 34, 5, 0, 0)
s = 10: (0, 14, 0, 0, 0, 2, 0, 0, 40, 5, 0, 0)
s = 11: (0, 27, 0, 0, 0, 3, 0, 0, 42, 6, 0, 0)
s = 12: (0, 19, 0, 0, 0, 3, 0, 0, 48, 7, 0, 0)
s = 13: (0, 15, 0, 0, 0, 3, 0, 0, 27, 6, 0, 0)
s = 14: (0, 18, 0, 0, 0, 2, 0, 0, 36, 9, 0, 0)
s = 15: (0, 26, 0, 0, 0, 2, 0, 0, 40, 6, 0, 0)
s = 16: (0, 12, 0, 0, 0, 3, 0, 0, 35, 4, 0, 0)
s = 17: (0, 18, 0, 0, 0, 2, 0, 0, 40, 6, 0, 0)
s = 18: (0, 18, 0, 0, 0, 2, 0, 0, 42, 7, 0, 0)
s = 19: (0, 22, 0, 0, 0, 2, 0, 0, 38, 5, 0, 0)
s = 20: (0, 18, 0, 0, 0, 4, 0, 0, 23, 7, 0, 0)
s = 21: (0, 14, 0, 0, 0, 3, 0, 0, 30, 7, 0, 0)
s = 22: (0, 21, 0, 0, 0, 3, 0, 0, 29, 5, 0, 0)
s = 23: (0, 16, 0, 0, 0, 2, 0, 0, 50, 4, 0, 0)
s = 24: (0, 12, 0, 0, 0, 3, 0, 0, 56, 6, 0, 0)
s = 25: (0, 19, 0, 0, 0, 2, 0, 0, 39, 7, 0, 0)
s = 26: (0, 17, 0, 0, 0, 2, 0, 0, 28, 6, 0, 0)
s = 27: (0, 27, 0, 0, 0, 2, 0, 0, 24, 8, 0, 0)
s = 28: (0, 19, 0, 0, 0, 2, 0, 0, 44, 5, 0, 0)
s = 29: (0, 19, 0, 0, 0, 3, 0, 0, 37, 5, 0, 0)
s = 30: (0, 36, 0, 0, 0, 3, 0, 0, 37, 4, 0, 0)
s = 31: (0, 33, 0, 0, 0, 2, 0, 0, 32, 6, 0, 0)
s = 32: (0, 15, 0, 0, 0, 2, 0, 0, 34, 4, 0, 0)
s = 33: (0, 16, 0, 0, 0, 2, 0, 0, 36, 7, 0, 0)
s = 34: (0, 24, 0, 0, 0, 2, 0, 0, 34, 8, 0, 0)
s = 35: (0, 12, 0, 0, 0, 2, 0, 0, 26, 6, 0, 0)
s = 36: (0, 17, 0, 0, 0, 2, 0, 0, 50, 5, 0, 0)
s = 37: (0, 27, 0, 0, 0, 2, 0, 0, 25, 4, 0, 0)
s = 38: (0, 16, 0, 0, 0, 2, 0, 0, 35, 7, 0, 0)
s = 39: (0, 18, 0, 0, 0, 2, 0, 0, 51, 4, 0, 0)
s = 40: (0, 24, 0, 0, 0, 3, 0, 0, 32, 4, 0, 0)
s = 41: (0, 16, 0, 0, 0, 2, 0, 0, 46, 6, 0, 0)
s = 42: (0, 17, 0, 0, 0, 2, 0, 0, 29, 7, 0, 0)
s = 43: (0, 28, 0, 0, 0, 3, 0, 0, 30, 5, 0, 0)
s = 44: (0, 21, 0, 0, 0, 2, 0, 0, 31, 6, 0, 0)
s = 45: (0, 17, 0, 0, 0, 2, 0, 0, 49, 5, 0, 0)
s = 46: (0, 20, 0, 0, 0, 3, 0, 0, 25, 6, 0, 0)
s = 47: (0, 12, 0, 0, 0, 2, 0, 0, 48, 7, 0, 0)
s = 48: (0, 10, 0, 0, 0, 2, 0, 0, 27, 8, 0, 0)
s = 49: (0, 17, 0, 0, 0, 2, 0, 0, 44, 5, 0, 0)
s = 50: (0, 20, 0, 0, 0, 2, 0, 0, 23, 6, 0, 0)
s = 51: (0, 19, 0, 0, 0, 3, 0, 0, 26, 5, 0, 0)
s = 52: (0, 14, 0, 0, 0, 2, 0, 0, 24, 4, 0, 0)
s = 53: (0, 14, 0, 0, 0, 4, 0, 0, 39, 5, 0, 0)
s = 54: (0, 12, 0, 0, 0, 2, 0, 0, 45, 5, 0, 0)
s = 55: (0, 17, 0, 0, 0, 2, 0, 0, 29, 8, 0, 0)
s = 56: (0, 16, 0, 0, 0, 4, 0, 0, 23, 6, 0, 0)
s = 57: (0, 11, 0, 0, 0, 2, 0, 0, 40, 8, 0, 0)
s = 58: (0, 18, 0, 0, 0, 2, 0, 0, 21, 4, 0, 0)
s = 59: (0, 12, 0, 0, 0, 3, 0, 0, 28, 4, 0, 0)
s = 60: (0, 19, 0, 0, 0, 2, 0, 0, 42, 5, 0, 0)
s = 61: (0, 15, 0, 0, 0, 3, 0, 0, 41, 5, 0, 0)
s = 62: (0, 16, 0, 0, 0, 2, 0, 0, 34, 3, 0, 0)
s = 63: (0, 15, 0, 0, 0, 3, 0, 0, 35, 6, 0, 0)
s = 64: (0, 16, 0, 0, 0, 2, 0, 0, 41, 5, 0, 0)
s = 65: (0, 15, 0, 0, 0, 2, 0, 0, 49, 4, 0, 0)
s = 66: (0, 16, 0, 0, 0, 3, 0, 0, 24, 5, 0, 0)
s = 67: (0, 28, 0, 0, 0, 2, 0, 0, 40, 6, 0, 0)
s = 68: (0, 10, 0, 0, 0, 3, 0, 0, 30, 8, 0, 0)
s = 69: (0, 16, 0, 0, 0, 2, 0, 0, 45, 5, 0, 0)
s = 70: (0, 15, 0, 0, 0, 3, 0, 0, 22, 4, 0, 0)
s = 71: (0, 12, 0, 0, 0, 4, 0, 0, 29, 5, 0, 0)
s = 72: (0, 14, 0, 0, 0, 4, 0, 0, 57, 7, 0, 0)
s = 73: (0, 15, 0, 0, 0, 2, 0, 0, 26, 5, 0, 0)
s = 74: (0, 20, 0, 0, 0, 3, 0, 0, 40, 6, 0, 0)
s = 75: (0, 25, 0, 0, 0, 2, 0, 0, 44, 5, 0, 0)
s = 76: (0, 16, 0, 0, 0, 2, 0, 0, 36, 5, 0, 0)
s = 77: (0, 14, 0, 0, 0, 2, 0, 0, 38, 5, 0, 0)
s = 78: (0, 24, 0, 0, 0, 2, 0, 0, 24, 4, 0, 0)
s = 79: (0, 13, 0, 0, 0, 2, 0, 0, 34, 8, 0, 0)
s = 80: (0, 26, 0, 0, 0, 3, 0, 0, 24, 6, 0, 0)
s = 81: (0, 15, 0, 0, 0, 2, 0, 0, 24, 6, 0, 0)
s = 82: (0, 10, 0, 0, 0, 2, 0, 0, 65, 6, 0, 0)
s = 83: (0, 17, 0, 0, 0, 2, 0, 0, 25, 9, 0, 0)
s = 84: (0, 27, 0, 0, 0, 3, 0, 0, 38, 4, 0, 0)
s = 85: (0, 25, 0, 0, 0, 2, 0, 0, 24, 5, 0, 0)
s = 86: (0, 34, 0, 0, 0, 3, 0, 0, 27, 6, 0, 0)
s = 87: (0, 17, 0, 0, 0, 2, 0, 0, 42, 4, 0, 0)
s = 88: (0, 14, 0, 0, 0, 3, 0, 0, 33, 7, 0, 0)
s = 89: (0, 24, 0, 0, 0, 2, 0, 0, 33, 7, 0, 0)
s = 90: (0, 32, 0, 0, 0, 2, 0, 0, 26, 4, 0, 0)
s = 91: (0, 26, 0, 0, 0, 3, 0, 0, 59, 4, 0, 0)
s = 92: (0, 13, 0, 0, 0, 2, 0, 0, 38, 5, 0, 0)
s = 93: (0, 19, 0, 0, 0, 2, 0, 0, 28, 5, 0, 0)
s = 94: (0, 22, 0, 0, 0, 3, 0, 0, 23, 6, 0, 0)
s = 95: (0, 20, 0, 0, 0, 3, 0, 0, 47, 9, 0, 0)
s = 96: (0, 26, 0, 0, 0, 2, 0, 0, 25, 5, 0, 0)
s = 97: (0, 16, 0, 0, 0, 2, 0, 0, 26, 4, 0, 0)
s = 98: (0, 18, 0, 0, 0, 3, 0, 0, 38, 9, 0, 0)
s = 99: (0, 12, 0, 0, 0, 3, 0, 0, 38, 6, 0, 0)
s = 100: (0, 19, 0, 0, 0, 2, 0, 0, 30, 6, 0, 0)
s = 101: (0, 15, 0, 0, 0, 3, 0, 0, 36, 5, 0, 0)
s = 102: (0, 26, 0, 0, 0, 3, 0, 0, 31, 5, 0, 0)
s = 103: (0, 14, 0, 0, 0, 3, 0, 0, 49, 8, 0, 0)
s = 104: (0, 18, 0, 0, 0, 3, 0, 0, 38, 5, 0, 0)
s = 105: (0, 19, 0, 0, 0, 3, 0, 0, 24, 5, 0, 0)
s = 106: (0, 19, 0, 0, 0, 2, 0, 0, 28, 8, 0, 0)
s = 107: (0, 19, 0, 0, 0, 2, 0, 0, 35, 5, 0, 0)
s = 108: (0, 20, 0, 0, 0, 3, 0, 0, 35, 7, 0, 0)
s = 109: (0, 21, 0, 0, 0, 2, 0, 0, 68, 7, 0, 0)
s = 110: (0, 21, 0, 0, 0, 2, 0, 0, 26, 4, 0, 0)
s = 111: (0, 17, 0, 0, 0, 3, 0, 0, 54, 6, 0, 0)
s = 112: (0, 14, 0, 0, 0, 3, 0, 0, 26, 8, 0, 0)
s = 113: (0, 16, 0, 0, 0, 4, 0, 0, 30, 5, 0, 0)
s = 114: (0, 20, 0, 0, 0, 3, 0, 0, 28, 7, 0, 0)
s = 115: (0, 16, 0, 0, 0, 2, 0, 0, 23, 4, 0, 0)
s = 116: (0, 19, 0, 0, 0, 2, 0, 0, 42, 4, 0, 0)
s = 117: (0, 21, 0, 0, 0, 2, 0, 0, 24, 5, 0, 0)
s = 118: (0, 29, 0, 0, 0, 2, 0, 0, 34, 5, 0, 0)
s = 119: (0, 21, 0, 0, 0, 3, 0, 0, 48, 6, 0, 0)
s = 120: (0, 28, 0, 0, 0, 2, 0, 0, 41, 5, 0, 0)
s = 121: (0, 17, 0, 0, 0, 3, 0, 0, 21, 7, 0, 0)
s = 122: (0, 16, 0, 0, 0, 3, 0, 0, 27, 5, 0, 0)
s = 123: (0, 29, 0, 0, 0, 3, 0, 0, 38, 7, 0, 0)
s = 124: (0, 16, 0, 0, 0, 3, 0, 0, 38, 5, 0, 0)
s = 125: (0, 13, 0, 0, 0, 2, 0, 0, 29, 8, 0, 0)
s = 126: (0, 21, 0, 0, 0, 2, 0, 0, 23, 5, 0, 0)
s = 127: (0, 13, 0, 0, 0, 4, 0, 0, 27, 6, 0, 0)
s = 128: (0, 24, 0, 0, 0, 2, 0, 0, 30, 6, 0, 0)
s = 129: (0, 31, 0, 0, 0, 2, 0, 0, 33, 4, 0, 0)
s = 130: (0, 24, 0, 0, 0, 2, 0, 0, 28, 6, 0, 0)
s = 131: (0, 15, 0, 0, 0, 3, 0, 0, 35, 5, 0, 0)
s = 132: (0, 19, 0, 0, 0, 3, 0, 0, 35, 8, 0, 0)
s = 133: (0, 27, 0, 0, 0, 3, 0, 0, 35, 5, 0, 0)
s = 134: (0, 25, 0, 0, 0, 2, 0, 0, 48, 5, 0, 0)
s = 135: (0, 15, 0, 0, 0, 2, 0, 0, 39, 7, 0, 0)
s = 136: (0, 13, 0, 0, 0, 3, 0, 0, 35, 4, 0, 0)
s = 137: (0, 23, 0, 0, 0, 2, 0, 0, 21, 4, 0, 0)
s = 138: (0, 13, 0, 0, 0, 3, 0, 0, 26, 5, 0, 0)
s = 139: (0, 12, 0, 0, 0, 3, 0, 0, 28, 6, 0, 0)
s = 140: (0, 24, 0, 0, 0, 2, 0, 0, 24, 5, 0, 0)
s = 141: (0, 27, 0, 0, 0, 4, 0, 0, 45, 10, 0, 0)
s = 142: (0, 27, 0, 0, 0, 2, 0, 0, 35, 7, 0, 0)
s = 143: (0, 21, 0, 0, 0, 3, 0, 0, 55, 7, 0, 0)
s = 144: (0, 16, 0, 0, 0, 2, 0, 0, 69, 5, 0, 0)
s = 145: (0, 16, 0, 0, 0, 3, 0, 0, 28, 5, 0, 0)
s = 146: (0, 19, 0, 0, 0, 2, 0, 0, 30, 5, 0, 0)
s = 147: (0, 21, 0, 0, 0, 2, 0, 0, 30, 7, 0, 0)
s = 148: (0, 20, 0, 0, 0, 2, 0, 0, 29, 3, 0, 0)
s = 149: (0, 23, 0, 0, 0, 4, 0, 0, 24, 4, 0, 0)
s = 150: (0, 12, 0, 0, 0, 2, 0, 0, 41, 5, 0, 0)
s = 151: (0, 11, 0, 0, 0, 3, 0, 0, 53, 5, 0, 0)
s = 152: (0, 30, 0, 0, 0, 2, 0, 0, 32, 5, 0, 0)
s = 153: (0, 11, 0, 0, 0, 2, 0, 0, 53, 6, 0, 0)
s = 154: (0, 21, 0, 0, 0, 2, 0, 0, 47, 9, 0, 0)
s = 155: (0, 14, 0, 0, 0, 2, 0, 0, 34, 3, 0, 0)
s = 156: (0, 16, 0, 0, 0, 3, 0, 0, 35, 5, 0, 0)
s = 157: (0, 25, 0, 0, 0, 4, 0, 0, 44, 7, 0, 0)
s = 158: (0, 27, 0, 0, 0, 2, 0, 0, 39, 7, 0, 0)
s = 159: (0, 18, 0, 0, 0, 2, 0, 0, 45, 5, 0, 0)
s = 160: (0, 25, 0, 0, 0, 2, 0, 0, 35, 5, 0, 0)
s = 161: (0, 26, 0, 0, 0, 3, 0, 0, 55, 6, 0, 0)
s = 162: (0, 16, 0, 0, 0, 3, 0, 0, 44, 6, 0, 0)
s = 163: (0, 16, 0, 0, 0, 2, 0, 0, 53, 4, 0, 0)
s = 164: (0, 21, 0, 0, 0, 2, 0, 0, 27, 6, 0, 0)
s = 165: (0, 13, 0, 0, 0, 2, 0, 0, 23, 4, 0, 0)
s = 166: (0, 12, 0, 0, 0, 3, 0, 0, 28, 9, 0, 0)
s = 167: (0, 16, 0, 0, 0, 2, 0, 0, 38, 6, 0, 0)
s = 168: (0, 15, 0, 0, 0, 2, 0, 0, 45, 6, 0, 0)
s = 169: (0, 19, 0, 0, 0, 2, 0, 0, 37, 7, 0, 0)
s = 170: (0, 23, 0, 0, 0, 2, 0, 0, 46, 5, 0, 0)
s = 171: (0, 16, 0, 0, 0, 2, 0, 0, 48, 6, 0, 0)
s = 172: (0, 20, 0, 0, 0, 2, 0, 0, 28, 4, 0, 0)
s = 173: (0, 22, 0, 0, 0, 2, 0, 0, 27, 6, 0, 0)
s = 174: (0, 15, 0, 0, 0, 3, 0, 0, 25, 4, 0, 0)
s = 175: (0, 24, 0, 0, 0, 2, 0, 0, 30, 6, 0, 0)
s = 176: (0, 15, 0, 0, 0, 3, 0, 0, 49, 4, 0, 0)
s = 177: (0, 13, 0, 0, 0, 3, 0, 0, 25, 8, 0, 0)
s = 178: (0, 21, 0, 0, 0, 2, 0, 0, 43, 4, 0, 0)
s = 179: (0, 18, 0, 0, 0, 3, 0, 0, 46, 5, 0, 0)
s = 180: (0, 15, 0, 0, 0, 2, 0, 0, 52, 4, 0, 0)
s = 181: (0, 24, 0, 0, 0, 2, 0, 0, 29, 6, 0, 0)
s = 182: (0, 16, 0, 0, 0, 2, 0, 0, 31, 5, 0, 0)
s = 183: (0, 15, 0, 0, 0, 3, 0, 0, 30, 3, 0, 0)
s = 184: (0, 19, 0, 0, 0, 2, 0, 0, 31, 4, 0, 0)
s = 185: (0, 10, 0, 0, 0, 3, 0, 0, 30, 4, 0, 0)
s = 186: (0, 12, 0, 0, 0, 2, 0, 0, 31, 5, 0, 0)
s = 187: (0, 29, 0, 0, 0, 2, 0, 0, 29, 4, 0, 0)
s = 188: (0, 12, 0, 0, 0, 3, 0, 0, 21, 6, 0, 0)
s = 189: (0, 24, 0, 0, 0, 3, 0, 0, 24, 7, 0, 0)
s = 190: (0, 12, 0, 0, 0, 3, 0, 0, 39, 6, 0, 0)
s = 191: (0, 14, 0, 0, 0, 2, 0, 0, 37, 5, 0, 0)
s = 192: (0, 19, 0, 0, 0, 2, 0, 0, 25, 4, 0, 0)
s = 193: (0, 14, 0, 0, 0, 3, 0, 0, 29, 4, 0, 0)
s = 194: (0, 23, 0, 0, 0, 3, 0, 0, 25, 6, 0, 0)
s = 195: (0, 19, 0, 0, 0, 3, 0, 0, 42, 6, 0, 0)
s = 196: (0, 23, 0, 0, 0, 2, 0, 0, 33, 4, 0, 0)
s = 197: (0, 18, 0, 0, 0, 3, 0, 0, 29, 4, 0, 0)
s = 198: (0, 19, 0, 0, 0, 3, 0, 0, 31, 6, 0, 0)
s = 199: (0, 20, 0, 0, 0, 3, 0, 0, 27, 5, 0, 0)
s = 200: (0, 20, 0, 0, 0, 2, 0, 0, 52, 4, 0, 0)
------------------------------------------------------------------------
RESOURCE k = 3
s = 1: (0, 0, 10, 18, 23, 0, 11, 7, 0, 0, 28, 0)
s = 2: (0, 0, 4, 19, 38, 0, 11, 10, 0, 0, 23, 0)
s = 3: (0, 0, 6, 25, 20, 0, 16, 12, 0, 0, 24, 0)
s = 4: (0, 0, 8, 22, 36, 0, 19, 7, 0, 0, 17, 0)
s = 5: (0, 0, 7, 37, 40, 0, 14, 10, 0, 0, 17, 0)
s = 6: (0, 0, 5, 19, 38, 0, 25, 13, 0, 0, 18, 0)
s = 7: (0, 0, 6, 34, 28, 0, 11, 8, 0, 0, 21, 0)
s = 8: (0, 0, 6, 31, 21, 0, 18, 11, 0, 0, 25, 0)
s = 9: (0, 0, 8, 21, 23, 0, 11, 9, 0, 0, 19, 0)
s = 10: (0, 0, 10, 22, 41, 0, 20, 10, 0, 0, 17, 0)
s = 11: (0, 0, 6, 20, 54, 0, 10, 10, 0, 0, 16, 0)
s = 12: (0, 0, 6, 38, 64, 0, 16, 12, 0, 0, 25, 0)
s = 13: (0, 0, 9, 22, 24, 0, 15, 8, 0, 0, 24, 0)
s = 14: (0, 0, 8, 19, 31, 0, 17, 9, 0, 0, 16, 0)
s = 15: (0, 0, 8, 26, 37, 0, 19, 9, 0, 0, 12, 0)
s = 16: (0, 0, 5, 14, 24, 0, 13, 10, 0, 0, 36, 0)
s = 17: (0, 0, 7, 29, 33, 0, 15, 7, 0, 0, 18, 0)
s = 18: (0, 0, 9, 21, 31, 0, 9, 6, 0, 0, 23, 0)
s = 19: (0, 0, 7, 28, 30, 0, 22, 11, 0, 0, 18, 0)
s = 20: (0, 0, 10, 31, 31, 0, 16, 9, 0, 0, 26, 0)
s = 21: (0, 0, 11, 14, 56, 0, 18, 6, 0, 0, 17, 0)
s = 22: (0, 0, 8, 18, 39, 0, 18, 6, 0, 0, 17, 0)
s = 23: (0, 0, 6, 17, 42, 0, 14, 9, 0, 0, 16, 0)
s = 24: (0, 0, 6, 20, 38, 0, 15, 8, 0, 0, 22, 0)
s = 25: (0, 0, 8, 18, 51, 0, 18, 15, 0, 0, 15, 0)
s = 26: (0, 0, 7, 35, 22, 0, 9, 5, 0, 0, 22, 0)
s = 27: (0, 0, 6, 22, 31, 0, 20, 8, 0, 0, 27, 0)
s = 28: (0, 0, 6, 30, 32, 0, 17, 12, 0, 0, 28, 0)
s = 29: (0, 0, 5, 16, 49, 0, 18, 11, 0, 0, 22, 0)
s = 30: (0, 0, 5, 29, 36, 0, 12, 5, 0, 0, 15, 0)
s = 31: (0, 0, 6, 22, 43, 0, 15, 8, 0, 0, 23, 0)
s = 32: (0, 0, 6, 18, 34, 0, 17, 7, 0, 0, 19, 0)
s = 33: (0, 0, 10, 25, 26, 0, 12, 5, 0, 0, 16, 0)
s = 34: (0, 0, 6, 29, 43, 0, 25, 8, 0, 0, 26, 0)
s = 35: (0, 0, 8, 19, 24, 0, 9, 10, 0, 0, 20, 0)
s = 36: (0, 0, 6, 23, 39, 0, 10, 6, 0, 0, 20, 0)
s = 37: (0, 0, 6, 23, 23, 0, 22, 9, 0, 0, 20, 0)
s = 38: (0, 0, 7, 24, 34, 0, 15, 8, 0, 0, 22, 0)
s = 39: (0, 0, 5, 22, 23, 0, 14, 9, 0, 0, 20, 0)
s = 40: (0, 0, 9, 28, 41, 0, 21, 6, 0, 0, 25, 0)
s = 41: (0, 0, 10, 31, 47, 0, 16, 13, 0, 0, 37, 0)
s = 42: (0, 0, 9, 17, 49, 0, 20, 12, 0, 0, 13, 0)
s = 43: (0, 0, 4, 27, 30, 0, 22, 10, 0, 0, 21, 0)
s = 44: (0, 0, 12, 25, 41, 0, 15, 10, 0, 0, 23, 0)
s = 45: (0, 0, 5, 34, 51, 0, 12, 6, 0, 0, 22, 0)
s = 46: (0, 0, 5, 17, 48, 0, 9, 12, 0, 0, 14, 0)
s = 47: (0, 0, 4, 33, 41, 0, 12, 8, 0, 0, 19, 0)
s = 48: (0, 0, 6, 30, 32, 0, 24, 8, 0, 0, 21, 0)
s = 49: (0, 0, 7, 26, 29, 0, 12, 9, 0, 0, 17, 0)
s = 50: (0, 0, 8, 21, 33, 0, 15, 10, 0, 0, 32, 0)
s = 51: (0, 0, 8, 25, 27, 0, 15, 11, 0, 0, 22, 0)
s = 52: (0, 0, 9, 16, 24, 0, 11, 6, 0, 0, 13, 0)
s = 53: (0, 0, 8, 16, 53, 0, 10, 8, 0, 0, 15, 0)
s = 54: (0, 0, 6, 38, 34, 0, 19, 7, 0, 0, 18, 0)
s = 55: (0, 0, 7, 21, 25, 0, 17, 11, 0, 0, 20, 0)
s = 56: (0, 0, 5, 39, 62, 0, 12, 10, 0, 0, 18, 0)
s = 57: (0, 0, 9, 36, 33, 0, 15, 9, 0, 0, 23, 0)
s = 58: (0, 0, 9, 33, 25, 0, 18, 7, 0, 0, 23, 0)
s = 59: (0, 0, 9, 16, 43, 0, 14, 8, 0, 0, 24, 0)
s = 60: (0, 0, 9, 29, 30, 0, 14, 7, 0, 0, 27, 0)
s = 61: (0, 0, 13, 22, 35, 0, 15, 9, 0, 0, 24, 0)
s = 62: (0, 0, 5, 32, 21, 0, 14, 6, 0, 0, 13, 0)
s = 63: (0, 0, 12, 31, 47, 0, 12, 8, 0, 0, 18, 0)
s = 64: (0, 0, 4, 17, 38, 0, 14, 11, 0, 0, 22, 0)
s = 65: (0, 0, 14, 16, 36, 0, 12, 9, 0, 0, 32, 0)
s = 66: (0, 0, 6, 28, 26, 0, 18, 15, 0, 0, 28, 0)
s = 67: (0, 0, 11, 32, 40, 0, 20, 10, 0, 0, 18, 0)
s = 68: (0, 0, 6, 24, 29, 0, 17, 5, 0, 0, 28, 0)
s = 69: (0, 0, 5, 35, 49, 0, 11, 11, 0, 0, 31, 0)
s = 70: (0, 0, 10, 23, 41, 0, 14, 6, 0, 0, 30, 0)
s = 71: (0, 0, 13, 37, 30, 0, 23, 6, 0, 0, 24, 0)
s = 72: (0, 0, 9, 23, 41, 0, 13, 11, 0, 0, 16, 0)
s = 73: (0, 0, 11, 25, 25, 0, 12, 13, 0, 0, 27, 0)
s = 74: (0, 0, 8, 17, 37, 0, 10, 7, 0, 0, 13, 0)
s = 75: (0, 0, 6, 31, 29, 0, 15, 11, 0, 0, 22, 0)
s = 76: (0, 0, 9, 20, 37, 0, 16, 11, 0, 0, 15, 0)
s = 77: (0, 0, 6, 26, 25, 0, 13, 6, 0, 0, 14, 0)
s = 78: (0, 0, 5, 24, 32, 0, 22, 11, 0, 0, 18, 0)
s = 79: (0, 0, 8, 16, 27, 0, 18, 9, 0, 0, 19, 0)
s = 80: (0, 0, 5, 24, 52, 0, 16, 10, 0, 0, 21, 0)
s = 81: (0, 0, 7, 31, 48, 0, 9, 9, 0, 0, 12, 0)
s = 82: (0, 0, 8, 31, 33, 0, 13, 8, 0, 0, 24, 0)
s = 83: (0, 0, 5, 17, 26, 0, 13, 9, 0, 0, 15, 0)
s = 84: (0, 0, 6, 27, 21, 0, 12, 6, 0, 0, 26, 0)
s = 85: (0, 0, 13, 22, 36, 0, 13, 8, 0, 0, 13, 0)
s = 86: (0, 0, 6, 33, 52, 0, 13, 5, 0, 0, 22, 0)
s = 87: (0, 0, 6, 16, 35, 0, 23, 6, 0, 0, 15, 0)
s = 88: (0, 0, 12, 20, 32, 0, 14, 7, 0, 0, 16, 0)
s = 89: (0, 0, 9, 41, 48, 0, 10, 7, 0, 0, 21, 0)
s = 90: (0, 0, 9, 32, 39, 0, 15, 7, 0, 0, 24, 0)
s = 91: (0, 0, 7, 18, 21, 0, 17, 7, 0, 0, 17, 0)
s = 92: (0, 0, 7, 23, 40, 0, 13, 9, 0, 0, 25, 0)
s = 93: (0, 0, 10, 26, 31, 0, 9, 5, 0, 0, 22, 0)
s = 94: (0, 0, 10, 17, 33, 0, 17, 9, 0, 0, 29, 0)
s = 95: (0, 0, 11, 22, 27, 0, 12, 11, 0, 0, 20, 0)
s = 96: (0, 0, 7, 22, 28, 0, 17, 10, 0, 0, 17, 0)
s = 97: (0, 0, 6, 19, 47, 0, 10, 7, 0, 0, 27, 0)
s = 98: (0, 0, 9, 28, 36, 0, 13, 9, 0, 0, 22, 0)
s = 99: (0, 0, 9, 26, 48, 0, 18, 9, 0, 0, 22, 0)
s = 100: (0, 0, 5, 22, 45, 0, 10, 9, 0, 0, 14, 0)
s = 101: (0, 0, 7, 17, 40, 0, 21, 8, 0, 0, 25, 0)
s = 102: (0, 0, 11, 29, 54, 0, 16, 9, 0, 0, 19, 0)
s = 103: (0, 0, 7, 23, 22, 0, 9, 5, 0, 0, 20, 0)
s = 104: (0, 0, 7, 28, 30, 0, 12, 9, 0, 0, 23, 0)
s = 105: (0, 0, 9, 32, 27, 0, 19, 5, 0, 0, 12, 0)
s = 106: (0, 0, 9, 28, 23, 0, 15, 7, 0, 0, 29, 0)
s = 107: (0, 0, 5, 41, 24, 0, 14, 6, 0, 0, 25, 0)
s = 108: (0, 0, 11, 32, 27, 0, 15, 9, 0, 0, 24, 0)
s = 109: (0, 0, 9, 16, 38, 0, 16, 7, 0, 0, 27, 0)
s = 110: (0, 0, 9, 23, 39, 0, 17, 5, 0, 0, 21, 0)
s = 111: (0, 0, 6, 22, 48, 0, 11, 8, 0, 0, 17, 0)
s = 112: (0, 0, 7, 34, 23, 0, 16, 14, 0, 0, 12, 0)
s = 113: (0, 0, 9, 22, 22, 0, 14, 6, 0, 0, 18, 0)
s = 114: (0, 0, 5, 31, 43, 0, 12, 8, 0, 0, 14, 0)
s = 115: (0, 0, 8, 21, 31, 0, 25, 13, 0, 0, 20, 0)
s = 116: (0, 0, 4, 20, 33, 0, 22, 11, 0, 0, 15, 0)
s = 117: (0, 0, 6, 32, 38, 0, 13, 6, 0, 0, 34, 0)
s = 118: (0, 0, 6, 20, 25, 0, 18, 12, 0, 0, 20, 0)
s = 119: (0, 0, 6, 24, 38, 0, 10, 9, 0, 0, 16, 0)
s = 120: (0, 0, 6, 20, 49, 0, 18, 10, 0, 0, 20, 0)
s = 121: (0, 0, 8, 20, 32, 0, 13, 10, 0, 0, 27, 0)
s = 122: (0, 0, 5, 30, 22, 0, 14, 10, 0, 0, 21, 0)
s = 123: (0, 0, 7, 20, 29, 0, 17, 8, 0, 0, 27, 0)
s = 124: (0, 0, 9, 22, 39, 0, 13, 10, 0, 0, 14, 0)
s = 125: (0, 0, 8, 14, 46, 0, 23, 7, 0, 0, 26, 0)
s = 126: (0, 0, 7, 25, 32, 0, 10, 10, 0, 0, 14, 0)
s = 127: (0, 0, 10, 18, 21, 0, 14, 7, 0, 0, 22, 0)
s = 128: (0, 0, 7, 34, 32, 0, 16, 10, 0, 0, 27, 0)
s = 129: (0, 0, 9, 24, 29, 0, 28, 6, 0, 0, 19, 0)
s = 130: (0, 0, 5, 19, 36, 0, 19, 8, 0, 0, 15, 0)
s = 131: (0, 0, 10, 33, 30, 0, 23, 11, 0, 0, 16, 0)
s = 132: (0, 0, 6, 31, 30, 0, 11, 8, 0, 0, 22, 0)
s = 133: (0, 0, 7, 19, 53, 0, 21, 5, 0, 0, 30, 0)
s = 134: (0, 0, 10, 34, 29, 0, 9, 11, 0, 0, 24, 0)
s = 135: (0, 0, 7, 24, 27, 0, 17, 12, 0, 0, 26, 0)
s = 136: (0, 0, 10, 27, 48, 0, 11, 12, 0, 0, 19, 0)
s = 137: (0, 0, 7, 24, 29, 0, 17, 5, 0, 0, 26, 0)
s = 138: (0, 0, 8, 21, 40, 0, 16, 6, 0, 0, 13, 0)
s = 139: (0, 0, 13, 36, 42, 0, 19, 7, 0, 0, 21, 0)
s = 140: (0, 0, 8, 23, 59, 0, 19, 7, 0, 0, 17, 0)
s = 141: (0, 0, 9, 30, 33, 0, 10, 6, 0, 0, 31, 0)
s = 142: (0, 0, 9, 26, 30, 0, 18, 6, 0, 0, 17, 0)
s = 143: (0, 0, 12, 37, 34, 0, 20, 14, 0, 0, 14, 0)
s = 144: (0, 0, 6, 23, 49, 0, 18, 6, 0, 0, 18, 0)
s = 145: (0, 0, 9, 18, 52, 0, 10, 11, 0, 0, 33, 0)
s = 146: (0, 0, 7, 22, 44, 0, 9, 6, 0, 0, 16, 0)
s = 147: (0, 0, 7, 23, 38, 0, 14, 8, 0, 0, 22, 0)
s = 148: (0, 0, 13, 27, 69, 0, 15, 14, 0, 0, 29, 0)
s = 149: (0, 0, 11, 15, 41, 0, 12, 6, 0, 0, 29, 0)
s = 150: (0, 0, 8, 23, 31, 0, 21, 8, 0, 0, 25, 0)
s = 151: (0, 0, 6, 27, 37, 0, 26, 12, 0, 0, 16, 0)
s = 152: (0, 0, 7, 13, 41, 0, 12, 7, 0, 0, 25, 0)
s = 153: (0, 0, 7, 22, 41, 0, 18, 12, 0, 0, 20, 0)
s = 154: (0, 0, 6, 45, 24, 0, 18, 8, 0, 0, 17, 0)
s = 155: (0, 0, 5, 20, 42, 0, 17, 11, 0, 0, 17, 0)
s = 156: (0, 0, 12, 35, 22, 0, 11, 11, 0, 0, 22, 0)
s = 157: (0, 0, 6, 16, 38, 0, 23, 9, 0, 0, 17, 0)
s = 158: (0, 0, 6, 26, 56, 0, 12, 10, 0, 0, 35, 0)
s = 159: (0, 0, 8, 34, 20, 0, 13, 7, 0, 0, 21, 0)
s = 160: (0, 0, 9, 24, 45, 0, 22, 7, 0, 0, 24, 0)
s = 161: (0, 0, 10, 18, 52, 0, 10, 6, 0, 0, 18, 0)
s = 162: (0, 0, 9, 22, 28, 0, 16, 10, 0, 0, 27, 0)
s = 163: (0, 0, 7, 30, 36, 0, 9, 9, 0, 0, 23, 0)
s = 164: (0, 0, 6, 20, 43, 0, 11, 10, 0, 0, 17, 0)
s = 165: (0, 0, 6, 30, 35, 0, 20, 9, 0, 0, 33, 0)
s = 166: (0, 0, 10, 16, 22, 0, 15, 10, 0, 0, 27, 0)
s = 167: (0, 0, 7, 37, 28, 0, 9, 7, 0, 0, 17, 0)
s = 168: (0, 0, 6, 37, 33, 0, 15, 12, 0, 0, 23, 0)
s = 169: (0, 0, 5, 21, 40, 0, 14, 14, 0, 0, 30, 0)
s = 170: (0, 0, 7, 15, 29, 0, 16, 11, 0, 0, 16, 0)
s = 171: (0, 0, 8, 23, 21, 0, 22, 7, 0, 0, 14, 0)
s = 172: (0, 0, 8, 17, 46, 0, 18, 8, 0, 0, 29, 0)
s = 173: (0, 0, 7, 26, 27, 0, 11, 7, 0, 0, 20, 0)
s = 174: (0, 0, 10, 18, 28, 0, 19, 7, 0, 0, 17, 0)
s = 175: (0, 0, 8, 22, 52, 0, 16, 9, 0, 0, 21, 0)
s = 176: (0, 0, 6, 44, 30, 0, 9, 10, 0, 0, 12, 0)
s = 177: (0, 0, 7, 18, 56, 0, 11, 7, 0, 0, 17, 0)
s = 178: (0, 0, 6, 18, 38, 0, 15, 12, 0, 0, 24, 0)
s = 179: (0, 0, 6, 17, 64, 0, 12, 9, 0, 0, 15, 0)
s = 180: (0, 0, 7, 18, 47, 0, 10, 12, 0, 0, 29, 0)
s = 181: (0, 0, 9, 19, 31, 0, 29, 8, 0, 0, 27, 0)
s = 182: (0, 0, 7, 22, 23, 0, 9, 15, 0, 0, 30, 0)
s = 183: (0, 0, 9, 22, 29, 0, 11, 9, 0, 0, 12, 0)
s = 184: (0, 0, 6, 31, 57, 0, 25, 14, 0, 0, 24, 0)
s = 185: (0, 0, 6, 20, 39, 0, 15, 6, 0, 0, 25, 0)
s = 186: (0, 0, 8, 16, 25, 0, 12, 12, 0, 0, 17, 0)
s = 187: (0, 0, 5, 40, 55, 0, 17, 7, 0, 0, 17, 0)
s = 188: (0, 0, 9, 15, 24, 0, 12, 7, 0, 0, 16, 0)
s = 189: (0, 0, 5, 21, 38, 0, 14, 6, 0, 0, 37, 0)
s = 190: (0, 0, 6, 25, 29, 0, 14, 6, 0, 0, 28, 0)
s = 191: (0, 0, 7, 41, 30, 0, 19, 8, 0, 0, 25, 0)
s = 192: (0, 0, 7, 20, 34, 0, 15, 5, 0, 0, 18, 0)
s = 193: (0, 0, 8, 23, 40, 0, 17, 5, 0, 0, 21, 0)
s = 194: (0, 0, 7, 31, 22, 0, 14, 12, 0, 0, 30, 0)
s = 195: (0, 0, 8, 26, 46, 0, 27, 7, 0, 0, 18, 0)
s = 196: (0, 0, 6, 26, 29, 0, 11, 7, 0, 0, 26, 0)
s = 197: (0, 0, 6, 18, 34, 0, 21, 11, 0, 0, 41, 0)
s = 198: (0, 0, 5, 18, 36, 0, 21, 7, 0, 0, 35, 0)
s = 199: (0, 0, 7, 34, 23, 0, 16, 7, 0, 0, 22, 0)
s = 200: (0, 0, 5, 38, 34, 0, 16, 8, 0, 0, 15, 0)
************************************************************************
ES/LS-VALUES:
jobnr.   ES(i)    LS(i)
------------------------------------------------------------------------
  0        0        0
  1        0       60
  2        0       58
  3        0       40
  4        7       48
  5       17       58
  6       19       60
  7        2       62
  8       19       64
  9       28       70
 10        7       66
 11       30       72
************************************************************************
BIG-M-VALUES:
M1 = 45, M2 = 175
************************************************************************
